
Gurobi 10.0.0 (win64) logging started Fri Mar 10 10:51:01 2023

Set parameter LogFile to value "logFiles/A-2L-180D/A-2L-6U-20F-15V-180D-a-charterout.log"
Gurobi Optimizer version 10.0.0 build v10.0.0rc2 (win64)

CPU model: Intel(R) Core(TM) i5-10210U CPU @ 1.60GHz, instruction set [SSE2|AVX|AVX2]
Thread count: 4 physical cores, 8 logical processors, using up to 8 threads

Optimize a model with 54916 rows, 667974 columns and 6714807 nonzeros
Model fingerprint: 0xfed1f79e
Variable types: 2562 continuous, 665412 integer (665412 binary)
Coefficient statistics:
  Matrix range     [1e+00, 2e+05]
  Objective range  [4e+01, 2e+07]
  Bounds range     [1e+00, 1e+00]
  RHS range        [1e+00, 3e+06]
Presolve removed 34617 rows and 46599 columns (presolve time = 5s) ...
Presolve removed 34618 rows and 47207 columns (presolve time = 10s) ...
Presolve removed 34606 rows and 47195 columns
Presolve time: 10.79s
Presolved: 20310 rows, 620779 columns, 3401169 nonzeros
Variable types: 2561 continuous, 618218 integer (618212 binary)
Deterministic concurrent LP optimizer: primal simplex, dual simplex, and barrier
Showing barrier log only...

Root barrier log...

Ordering time: 4.27s

Barrier statistics:
 AA' NZ     : 1.610e+06
 Factor NZ  : 7.291e+06 (roughly 300 MB of memory)
 Factor Ops : 7.126e+09 (less than 1 second per iteration)
 Threads    : 1

                  Objective                Residual
Iter       Primal          Dual         Primal    Dual     Compl     Time
   0  -1.88398601e+16  1.72717395e+13  1.30e+09 5.35e+04  6.73e+10    22s
   1  -2.66483387e+15  1.48122729e+13  1.85e+08 1.34e+05  9.61e+09    23s
   2  -1.06810686e+15  7.03258043e+12  7.43e+07 1.23e+04  3.89e+09    24s
   3  -2.20970512e+13  2.33026507e+12  1.54e+06 1.28e-09  8.48e+07    25s
   4  -5.31598649e+12  5.27238859e+11  3.70e+05 2.62e-09  2.04e+07    27s
   5  -1.22835019e+12  2.89123011e+11  8.54e+04 9.31e-10  4.85e+06    29s
   6  -3.75171177e+11  2.40998741e+11  2.61e+04 8.15e-10  1.61e+06    30s
   7  -3.04193762e+11  2.05674950e+11  2.12e+04 6.98e-10  1.29e+06    32s
   8  -2.19236777e+11  1.87364732e+11  1.53e+04 6.98e-10  9.53e+05    33s
   9  -1.10618899e+11  1.55142463e+11  7.75e+03 7.57e-10  5.22e+05    34s
  10  -9.19866544e+10  1.25764121e+11  6.46e+03 9.68e-10  4.23e+05    35s
  11  -4.67351720e+10  9.85181423e+10  3.31e+03 1.13e-09  2.39e+05    36s

Barrier performed 11 iterations in 36.85 seconds (36.47 work units)
Barrier solve interrupted - model solved by another algorithm

Concurrent spin time: 0.09s

Solved with dual simplex

Root relaxation: infeasible, 28189 iterations, 23.81 seconds (9.46 work units)

    Nodes    |    Current Node    |     Objective Bounds      |     Work
 Expl Unexpl |  Obj  Depth IntInf | Incumbent    BestBd   Gap | It/Node Time

     0     0 infeasible    0               - infeasible      -     -   37s

Explored 1 nodes (28189 simplex iterations) in 37.19 seconds (32.78 work units)
Thread count was 8 (of 8 available processors)

Solution count 0
No other solutions better than -1e+100

Model is infeasible or unbounded
Best objective -, best bound -, gap -
